language ESSENCE' 1.0
letting AssignmentMatrix be [[1, 0, 0, 1, 1, 0, 0, 0], 
[0, 1, 1, 0, 0, 0, 0, 0], 
[0, 0, 0, 0, 0, 0, 0, 1], 
[0, 0, 0, 0, 0, 0, 0, 0], 
[0, 0, 0, 0, 0, 1, 1, 0]]
letting OccupancyVector be [1, 1, 1, 1, 1, 1, 1, 1]
letting Price be [128, 128, 128, 128, 128, 252, 252, 252]
letting VMType be [37, 37, 37, 37, 37, 26, 26, 27]
